NAME: tsp30-2
TYPE: TSP
DIMENSION: 30
EDGE_WEIGHT_TYPE: EUC_2D
NODE_COORD_SECTION
0 85 97
1 44 16
2 23 23
3 64 11
4 42 22
5 1 94
6 3 22
7 45 100
8 56 69
9 66 83
10 17 59
11 13 86
12 46 8
13 26 22
14 12 66
15 68 64
16 65 68
17 50 29
18 28 94
19 34 13
20 91 37
21 10 61
22 35 47
23 12 54
24 50 66
25 49 88
26 83 36
27 96 4
28 6 7
29 60 77
EOF